WARNING: for repeatability, setting FPU to use double precision
============================[ Problem Statistics ]=============================
|                                                                             |
|  Number of variables:         81990                                         |
|  Number of clauses:          177986                                         |
|  Parse time:                   0.07 s                                       |
|                                                                             |
c ============================[ Search Statistics ]==============================
c | Conflicts |          ORIGINAL         |          LEARNT          | Progress |
c |           |    Vars  Clauses Literals |    Limit  Clauses Lit/Cl |          |
c ===============================================================================
c Switched to VSIDS.
c Switched to LRB.
c Switched to VSIDS.
c Switched to LRB.
c Switched to VSIDS.
c Switched to LRB.
c Switched to VSIDS.
c Switched to LRB.
c Switched to VSIDS.
c Switched to LRB.
c Switched to VSIDS.
c Switched to LRB.
c Switched to VSIDS.
c Switched to LRB.
c Switched to VSIDS.
c Switched to LRB.
c Switched to VSIDS.
c Switched to LRB.
c Switched to VSIDS.
c Switched to LRB.
c Switched to VSIDS.
c Switched to LRB.
c Switched to VSIDS.
c Switched to LRB.
c Switched to VSIDS.
c Switched to LRB.
c Switched to VSIDS.
c Switched to LRB.
c Switched to VSIDS.
CAREFUL: the definition is falsified in conflict 8520617 at DL 408 (has happened 1 times)
c Switched to LRB.
c Switched to VSIDS.
c Switched to LRB.
c Switched to VSIDS.
c ===============================================================================
restarts                  : 60810
conflicts                 : 12564005       (3547 /sec)
decisions                 : 95409787       (0.00 % random) (26937 /sec)
propagations              : 7538262323     (2128305 /sec)
conflict literals         : 831160045      (12.00 % deleted)

conflicts w/ DIP found    : 10804410       (85.99 % of conflicts)
conflicts w/ dangerous DIP: 1              (0.00 % of conflicts)
conflicts w/ DIP-learning : 214377         (1.71 % of conflicts)
decisions on ext vars     : 19374023       (20.31 % of decisions)
total ext vars            : 19380       
tried delete ext vars     : 0           
deleted ext vars          : 0           
max ext vars              : 19380       

Memory used               : 702.00 MB
CPU time                  : 3541.91 s
DIP computation time      : 96.2573 s (2.72 % of total time)
ER_sel time               : 16.5789 s
ER_add time               : 0.097934 s
ER_delC time              : 0 s
ER_delV time              : 0 s
ER_sub time               : 21.0476 s
ER_stat time              : 0 s

INDETERMINATE
